(declare-const c_0 Real)
(declare-const c_1 Real)
(declare-const c_2 Real)
(declare-const c_3 Real)
(declare-const c_4 Real)
(declare-const c_5 Real)
(declare-const c_6 Real)
(declare-const c_7 Real)
(declare-const c_8 Real)
(declare-const c_9 Real)
(declare-const c_10 Real)
(declare-const c_11 Real)
(declare-const c_12 Real)
(declare-const c_13 Real)
(declare-const c_14 Real)
(declare-const c_15 Real)
(declare-const c_16 Real)
(declare-const c_17 Real)
(declare-const c_18 Real)
(declare-const c_19 Real)
(declare-const c_20 Real)
(declare-const c_21 Real)
(declare-const c_22 Real)
(declare-const c_23 Real)
(declare-const c_24 Real)
(declare-const c_25 Real)
(declare-const c_26 Real)
(declare-const c_27 Real)
(declare-const c_28 Real)
(declare-const c_29 Real)
(declare-const s_0 Real)
(declare-const s_1 Real)
(declare-const s_2 Real)
(declare-const s_3 Real)
(declare-const s_4 Real)
(declare-const s_5 Real)
(declare-const s_6 Real)
(declare-const s_7 Real)
(declare-const s_8 Real)
(declare-const s_9 Real)
(declare-const s_10 Real)
(declare-const s_11 Real)
(declare-const s_12 Real)
(declare-const s_13 Real)
(declare-const s_14 Real)
(declare-const s_15 Real)
(declare-const s_16 Real)
(declare-const s_17 Real)
(declare-const s_18 Real)
(declare-const s_19 Real)
(declare-const s_20 Real)
(declare-const s_21 Real)
(declare-const s_22 Real)
(declare-const s_23 Real)
(declare-const s_24 Real)
(declare-const s_25 Real)
(declare-const s_26 Real)
(declare-const s_27 Real)
(declare-const s_28 Real)
(declare-const s_29 Real)
(assert (forall ((oldx Real) (oldy Real) (x Real) (y Real) ) (=> (and (>= (+ (* 1024 1) (* 1 oldx ) ) 0) (>= (+ (* 1023 1) (* (- 1) oldx ) ) 0) (>= (+ (* 1024 1) (* 1 oldy ) ) 0) (>= (+ (* 1023 1) (* (- 1) oldy ) ) 0) (>= (+ (* 1024 1) (* 1 x ) ) 0) (>= (+ (* 1023 1) (* (- 1) x ) ) 0) (>= (+ (* 1024 1) (* 1 y ) ) 0) (>= (+ (* 1023 1) (* (- 1) y ) ) 0) ) (>= (+ (* 1 oldx oldy s_2 ) (* 1 oldx s_1 ) (* 1 oldx s_3 x ) (* 1 oldx s_4 y ) (* 1 oldx oldx s_5 ) (* 1 oldy s_6 ) (* 1 oldy s_7 x ) (* 1 oldy s_8 y ) (* 1 oldy oldy s_9 ) (* 1 s_0 ) (* 1 s_10 x ) (* 1 s_11 x y ) (* 1 s_12 x x ) (* 1 s_13 y ) (* 1 s_14 y y ) ) 0) )))
(assert (forall ((oldx Real) (oldy Real) (x Real) (y Real) ) (=> (and (>= (+ (* 1024 1) (* 1 oldx ) ) 0) (>= (+ (* 1023 1) (* (- 1) oldx ) ) 0) (>= (+ (* 1024 1) (* 1 oldy ) ) 0) (>= (+ (* 1023 1) (* (- 1) oldy ) ) 0) (>= (+ (* 1024 1) (* 1 x ) ) 0) (>= (+ (* 1023 1) (* (- 1) x ) ) 0) (>= (+ (* 1024 1) (* 1 y ) ) 0) (>= (+ (* 1023 1) (* (- 1) y ) ) 0) ) (>= (+ (* 1 c_0 ) (* 1 c_1 oldx ) (* 1 c_10 x ) (* 1 c_11 x y ) (* 1 c_12 x x ) (* 1 c_13 y ) (* 1 c_14 y y ) (* 1 c_2 oldx oldy ) (* 1 c_3 oldx x ) (* 1 c_4 oldx y ) (* 1 c_5 oldx oldx ) (* 1 c_6 oldy ) (* 1 c_7 oldy x ) (* 1 c_8 oldy y ) (* 1 c_9 oldy oldy ) ) 0) )))
(assert (forall ((oldx Real) (oldy Real) (x Real) (y Real) ) (=> (and (>= (+ (* (- 1) 1) (* 1 x ) ) 0) (>= (+ (* (- 1) 1) (* 1 y ) ) 0) (>= (+ (* 1023 1) (* (- 1) oldx ) ) 0) (>= (+ (* 2094082 1) (* (- 1) oldy ) (* 1 x ) (* (- 2045) y ) ) 0) (>= (+ (* 3069 1) (* (- 1) x ) (* (- 2) y ) ) 0) (>= (+ (* 1023 1) (* (- 1) x ) ) 0) (>= (+ (* 1024 1) (* 1 oldx ) ) 0) (>= (+ (* 2095105 1) (* 1 oldx ) (* (- 2047) y ) ) 0) (>= (+ (* 1024 1) (* 1 y ) ) 0) (>= (+ (* 1047553 1) (* 1 x ) (* (- 1023) y ) ) 0) (>= (+ (* 1024 1) (* 1 x ) ) 0) (>= (+ (* 2098174 1) (* 1 oldy ) (* (- 1) x ) (* (- 2049) y ) ) 0) (>= (+ (* 1049599 1) (* 1 oldy ) (* (- 1025) y ) ) 0) (>= (+ (* 1024 1) (* 1 oldy ) ) 0) (>= (+ (* 1 oldx oldy s_2 ) (* 1 oldx s_1 ) (* 1 oldx s_3 x ) (* 1 oldx s_4 y ) (* 1 oldx oldx s_5 ) (* 1 oldy s_6 ) (* 1 oldy s_7 x ) (* 1 oldy s_8 y ) (* 1 oldy oldy s_9 ) (* 1 s_0 ) (* 1 s_10 x ) (* 1 s_11 x y ) (* 1 s_12 x x ) (* 1 s_13 y ) (* 1 s_14 y y ) ) 0) ) (>= (+ (* 1 s_0 ) (* 1 s_1 x ) (* (- 1) s_10 ) (* 1 s_10 x ) (* (- 1) s_11 x ) (* 1 s_11 x x ) (* 1 s_12 ) (* (- 2) s_12 x ) (* 1 s_12 x x ) (* 1 s_13 x ) (* 1 s_14 x x ) (* 1 s_2 x y ) (* (- 1) s_3 x ) (* 1 s_3 x x ) (* 1 s_4 x x ) (* 1 s_5 x x ) (* 1 s_6 y ) (* 1 s_7 x y ) (* (- 1) s_7 y ) (* 1 s_8 x y ) (* 1 s_9 y y ) ) 0) )))
(assert (forall ((oldx Real) (oldy Real) (x Real) (y Real) ) (=> (and (>= (+ (* (- 1) 1) (* 1 x ) ) 0) (>= (+ (* (- 1) 1) (* 1 y ) ) 0) (>= (+ (* 1023 1) (* (- 1) oldx ) ) 0) (>= (+ (* 2094082 1) (* (- 1) oldy ) (* 1 x ) (* (- 2045) y ) ) 0) (>= (+ (* 3069 1) (* (- 1) x ) (* (- 2) y ) ) 0) (>= (+ (* 1023 1) (* (- 1) x ) ) 0) (>= (+ (* 1024 1) (* 1 oldx ) ) 0) (>= (+ (* 2095105 1) (* 1 oldx ) (* (- 2047) y ) ) 0) (>= (+ (* 1024 1) (* 1 y ) ) 0) (>= (+ (* 1047553 1) (* 1 x ) (* (- 1023) y ) ) 0) (>= (+ (* 1024 1) (* 1 x ) ) 0) (>= (+ (* 2098174 1) (* 1 oldy ) (* (- 1) x ) (* (- 2049) y ) ) 0) (>= (+ (* 1049599 1) (* 1 oldy ) (* (- 1025) y ) ) 0) (>= (+ (* 1024 1) (* 1 oldy ) ) 0) (>= (+ (* 1 oldx oldy s_2 ) (* 1 oldx s_1 ) (* 1 oldx s_3 x ) (* 1 oldx s_4 y ) (* 1 oldx oldx s_5 ) (* 1 oldy s_6 ) (* 1 oldy s_7 x ) (* 1 oldy s_8 y ) (* 1 oldy oldy s_9 ) (* 1 s_0 ) (* 1 s_10 x ) (* 1 s_11 x y ) (* 1 s_12 x x ) (* 1 s_13 y ) (* 1 s_14 y y ) ) 0) ) (>= (+ (* 1 c_0 ) (* 1 c_1 x ) (* (- 1) c_10 ) (* 1 c_10 x ) (* (- 1) c_11 x ) (* 1 c_11 x x ) (* 1 c_12 ) (* (- 2) c_12 x ) (* 1 c_12 x x ) (* 1 c_13 x ) (* 1 c_14 x x ) (* 1 c_2 x y ) (* (- 1) c_3 x ) (* 1 c_3 x x ) (* 1 c_4 x x ) (* 1 c_5 x x ) (* 1 c_6 y ) (* 1 c_7 x y ) (* (- 1) c_7 y ) (* 1 c_8 x y ) (* 1 c_9 y y ) ) 0) )))
(assert (forall ((oldx Real) (oldy Real) (x Real) (y Real) ) (=> (and (>= (+ (* (- 1) 1) (* 1 x ) ) 0) (>= (+ (* (- 1) 1) (* 1 y ) ) 0) (>= (+ (* 1023 1) (* (- 1) oldx ) ) 0) (>= (+ (* 2094082 1) (* (- 1) oldy ) (* 1 x ) (* (- 2045) y ) ) 0) (>= (+ (* 3069 1) (* (- 1) x ) (* (- 2) y ) ) 0) (>= (+ (* 1023 1) (* (- 1) x ) ) 0) (>= (+ (* 1024 1) (* 1 oldx ) ) 0) (>= (+ (* 2095105 1) (* 1 oldx ) (* (- 2047) y ) ) 0) (>= (+ (* 1024 1) (* 1 y ) ) 0) (>= (+ (* 1047553 1) (* 1 x ) (* (- 1023) y ) ) 0) (>= (+ (* 1024 1) (* 1 x ) ) 0) (>= (+ (* 2098174 1) (* 1 oldy ) (* (- 1) x ) (* (- 2049) y ) ) 0) (>= (+ (* 1049599 1) (* 1 oldy ) (* (- 1025) y ) ) 0) (>= (+ (* 1024 1) (* 1 oldy ) ) 0) (>= (+ (* 1 oldx oldy s_2 ) (* 1 oldx s_1 ) (* 1 oldx s_3 x ) (* 1 oldx s_4 y ) (* 1 oldx oldx s_5 ) (* 1 oldy s_6 ) (* 1 oldy s_7 x ) (* 1 oldy s_8 y ) (* 1 oldy oldy s_9 ) (* 1 s_0 ) (* 1 s_10 x ) (* 1 s_11 x y ) (* 1 s_12 x x ) (* 1 s_13 y ) (* 1 s_14 y y ) ) 0) ) (>= (+ (* (- 1) 1) (* 1 c_1 oldx ) (* (- 1) c_1 x ) (* 1 c_10 ) (* 1 c_11 x ) (* 1 c_11 x y ) (* (- 1) c_11 x x ) (* (- 1) c_12 ) (* 2 c_12 x ) (* (- 1) c_13 x ) (* 1 c_13 y ) (* (- 1) c_14 x x ) (* 1 c_14 y y ) (* 1 c_2 oldx oldy ) (* (- 1) c_2 x y ) (* 1 c_3 oldx x ) (* 1 c_3 x ) (* (- 1) c_3 x x ) (* 1 c_4 oldx y ) (* (- 1) c_4 x x ) (* 1 c_5 oldx oldx ) (* (- 1) c_5 x x ) (* 1 c_6 oldy ) (* (- 1) c_6 y ) (* 1 c_7 oldy x ) (* (- 1) c_7 x y ) (* 1 c_7 y ) (* 1 c_8 oldy y ) (* (- 1) c_8 x y ) (* 1 c_9 oldy oldy ) (* (- 1) c_9 y y ) ) 0) )))
(assert (forall ((oldx Real) (oldy Real) (x Real) (y Real) ) (=> (and (>= (+ (* (- 1) 1) (* 1 x ) ) 0) (>= (+ (* (- 1) 1) (* 1 y ) ) 0) (>= (+ (* 1023 1) (* (- 1) oldx ) ) 0) (>= (+ (* 2094082 1) (* (- 1) oldy ) (* 1 x ) (* (- 2045) y ) ) 0) (>= (+ (* 3069 1) (* (- 1) x ) (* (- 2) y ) ) 0) (>= (+ (* 1023 1) (* (- 1) x ) ) 0) (>= (+ (* 1024 1) (* 1 oldx ) ) 0) (>= (+ (* 2095105 1) (* 1 oldx ) (* (- 2047) y ) ) 0) (>= (+ (* 1024 1) (* 1 y ) ) 0) (>= (+ (* 1047553 1) (* 1 x ) (* (- 1023) y ) ) 0) (>= (+ (* 1024 1) (* 1 x ) ) 0) (>= (+ (* 2098174 1) (* 1 oldy ) (* (- 1) x ) (* (- 2049) y ) ) 0) (>= (+ (* 1049599 1) (* 1 oldy ) (* (- 1025) y ) ) 0) (>= (+ (* 1024 1) (* 1 oldy ) ) 0) (>= (+ (* 1 oldx oldy s_2 ) (* 1 oldx s_1 ) (* 1 oldx s_3 x ) (* 1 oldx s_4 y ) (* 1 oldx oldx s_5 ) (* 1 oldy s_6 ) (* 1 oldy s_7 x ) (* 1 oldy s_8 y ) (* 1 oldy oldy s_9 ) (* 1 s_0 ) (* 1 s_10 x ) (* 1 s_11 x y ) (* 1 s_12 x x ) (* 1 s_13 y ) (* 1 s_14 y y ) ) 0) ) (>= (+ (* 1 s_0 ) (* 1 s_1 x ) (* (- 2) s_10 ) (* 1 s_10 y ) (* (- 2) s_11 ) (* (- 2) s_11 x ) (* 1 s_11 x y ) (* 1 s_11 y ) (* 4 s_12 ) (* (- 4) s_12 y ) (* 1 s_12 y y ) (* 1 s_13 ) (* 1 s_13 x ) (* 1 s_14 ) (* 2 s_14 x ) (* 1 s_14 x x ) (* 1 s_2 x y ) (* (- 2) s_3 x ) (* 1 s_3 x y ) (* 1 s_4 x ) (* 1 s_4 x x ) (* 1 s_5 x x ) (* 1 s_6 y ) (* (- 2) s_7 y ) (* 1 s_7 y y ) (* 1 s_8 x y ) (* 1 s_8 y ) (* 1 s_9 y y ) ) 0) )))
(assert (forall ((oldx Real) (oldy Real) (x Real) (y Real) ) (=> (and (>= (+ (* (- 1) 1) (* 1 x ) ) 0) (>= (+ (* (- 1) 1) (* 1 y ) ) 0) (>= (+ (* 1023 1) (* (- 1) oldx ) ) 0) (>= (+ (* 2094082 1) (* (- 1) oldy ) (* 1 x ) (* (- 2045) y ) ) 0) (>= (+ (* 3069 1) (* (- 1) x ) (* (- 2) y ) ) 0) (>= (+ (* 1023 1) (* (- 1) x ) ) 0) (>= (+ (* 1024 1) (* 1 oldx ) ) 0) (>= (+ (* 2095105 1) (* 1 oldx ) (* (- 2047) y ) ) 0) (>= (+ (* 1024 1) (* 1 y ) ) 0) (>= (+ (* 1047553 1) (* 1 x ) (* (- 1023) y ) ) 0) (>= (+ (* 1024 1) (* 1 x ) ) 0) (>= (+ (* 2098174 1) (* 1 oldy ) (* (- 1) x ) (* (- 2049) y ) ) 0) (>= (+ (* 1049599 1) (* 1 oldy ) (* (- 1025) y ) ) 0) (>= (+ (* 1024 1) (* 1 oldy ) ) 0) (>= (+ (* 1 oldx oldy s_2 ) (* 1 oldx s_1 ) (* 1 oldx s_3 x ) (* 1 oldx s_4 y ) (* 1 oldx oldx s_5 ) (* 1 oldy s_6 ) (* 1 oldy s_7 x ) (* 1 oldy s_8 y ) (* 1 oldy oldy s_9 ) (* 1 s_0 ) (* 1 s_10 x ) (* 1 s_11 x y ) (* 1 s_12 x x ) (* 1 s_13 y ) (* 1 s_14 y y ) ) 0) ) (>= (+ (* 1 c_0 ) (* 1 c_1 x ) (* (- 2) c_10 ) (* 1 c_10 y ) (* (- 2) c_11 ) (* (- 2) c_11 x ) (* 1 c_11 x y ) (* 1 c_11 y ) (* 4 c_12 ) (* (- 4) c_12 y ) (* 1 c_12 y y ) (* 1 c_13 ) (* 1 c_13 x ) (* 1 c_14 ) (* 2 c_14 x ) (* 1 c_14 x x ) (* 1 c_2 x y ) (* (- 2) c_3 x ) (* 1 c_3 x y ) (* 1 c_4 x ) (* 1 c_4 x x ) (* 1 c_5 x x ) (* 1 c_6 y ) (* (- 2) c_7 y ) (* 1 c_7 y y ) (* 1 c_8 x y ) (* 1 c_8 y ) (* 1 c_9 y y ) ) 0) )))
(assert (forall ((oldx Real) (oldy Real) (x Real) (y Real) ) (=> (and (>= (+ (* (- 1) 1) (* 1 x ) ) 0) (>= (+ (* (- 1) 1) (* 1 y ) ) 0) (>= (+ (* 1023 1) (* (- 1) oldx ) ) 0) (>= (+ (* 2094082 1) (* (- 1) oldy ) (* 1 x ) (* (- 2045) y ) ) 0) (>= (+ (* 3069 1) (* (- 1) x ) (* (- 2) y ) ) 0) (>= (+ (* 1023 1) (* (- 1) x ) ) 0) (>= (+ (* 1024 1) (* 1 oldx ) ) 0) (>= (+ (* 2095105 1) (* 1 oldx ) (* (- 2047) y ) ) 0) (>= (+ (* 1024 1) (* 1 y ) ) 0) (>= (+ (* 1047553 1) (* 1 x ) (* (- 1023) y ) ) 0) (>= (+ (* 1024 1) (* 1 x ) ) 0) (>= (+ (* 2098174 1) (* 1 oldy ) (* (- 1) x ) (* (- 2049) y ) ) 0) (>= (+ (* 1049599 1) (* 1 oldy ) (* (- 1025) y ) ) 0) (>= (+ (* 1024 1) (* 1 oldy ) ) 0) (>= (+ (* 1 oldx oldy s_2 ) (* 1 oldx s_1 ) (* 1 oldx s_3 x ) (* 1 oldx s_4 y ) (* 1 oldx oldx s_5 ) (* 1 oldy s_6 ) (* 1 oldy s_7 x ) (* 1 oldy s_8 y ) (* 1 oldy oldy s_9 ) (* 1 s_0 ) (* 1 s_10 x ) (* 1 s_11 x y ) (* 1 s_12 x x ) (* 1 s_13 y ) (* 1 s_14 y y ) ) 0) ) (>= (+ (* (- 1) 1) (* 1 c_1 oldx ) (* (- 1) c_1 x ) (* 2 c_10 ) (* 1 c_10 x ) (* (- 1) c_10 y ) (* 2 c_11 ) (* 2 c_11 x ) (* (- 1) c_11 y ) (* (- 4) c_12 ) (* 1 c_12 x x ) (* 4 c_12 y ) (* (- 1) c_12 y y ) (* (- 1) c_13 ) (* (- 1) c_13 x ) (* 1 c_13 y ) (* (- 1) c_14 ) (* (- 2) c_14 x ) (* (- 1) c_14 x x ) (* 1 c_14 y y ) (* 1 c_2 oldx oldy ) (* (- 1) c_2 x y ) (* 1 c_3 oldx x ) (* 2 c_3 x ) (* (- 1) c_3 x y ) (* 1 c_4 oldx y ) (* (- 1) c_4 x ) (* (- 1) c_4 x x ) (* 1 c_5 oldx oldx ) (* (- 1) c_5 x x ) (* 1 c_6 oldy ) (* (- 1) c_6 y ) (* 1 c_7 oldy x ) (* 2 c_7 y ) (* (- 1) c_7 y y ) (* 1 c_8 oldy y ) (* (- 1) c_8 x y ) (* (- 1) c_8 y ) (* 1 c_9 oldy oldy ) (* (- 1) c_9 y y ) ) 0) )))
(assert (forall ((oldx Real) (oldy Real) (x Real) (y Real) ) (=> (and (>= (* (- 1) x ) 0) (>= (+ (* 1023 1) (* (- 1) oldx ) ) 0) (>= (+ (* 2094082 1) (* (- 1) oldy ) (* 1 x ) (* (- 2045) y ) ) 0) (>= (+ (* 3069 1) (* (- 1) x ) (* (- 2) y ) ) 0) (>= (+ (* 1023 1) (* (- 1) x ) ) 0) (>= (+ (* 1024 1) (* 1 oldx ) ) 0) (>= (+ (* 2095105 1) (* 1 oldx ) (* (- 2047) y ) ) 0) (>= (+ (* 1024 1) (* 1 y ) ) 0) (>= (+ (* 1047553 1) (* 1 x ) (* (- 1023) y ) ) 0) (>= (+ (* 1024 1) (* 1 x ) ) 0) (>= (+ (* 2098174 1) (* 1 oldy ) (* (- 1) x ) (* (- 2049) y ) ) 0) (>= (+ (* 1049599 1) (* 1 oldy ) (* (- 1025) y ) ) 0) (>= (+ (* 1024 1) (* 1 oldy ) ) 0) (>= (+ (* 1 oldx oldy s_2 ) (* 1 oldx s_1 ) (* 1 oldx s_3 x ) (* 1 oldx s_4 y ) (* 1 oldx oldx s_5 ) (* 1 oldy s_6 ) (* 1 oldy s_7 x ) (* 1 oldy s_8 y ) (* 1 oldy oldy s_9 ) (* 1 s_0 ) (* 1 s_10 x ) (* 1 s_11 x y ) (* 1 s_12 x x ) (* 1 s_13 y ) (* 1 s_14 y y ) ) 0) ) (>= (+ (* 1 oldx oldy s_17 ) (* 1 oldx s_16 ) (* 1 oldx s_18 x ) (* 1 oldx s_19 y ) (* 1 oldx oldx s_20 ) (* 1 oldy s_21 ) (* 1 oldy s_22 x ) (* 1 oldy s_23 y ) (* 1 oldy oldy s_24 ) (* 1 s_15 ) (* 1 s_25 x ) (* 1 s_26 x y ) (* 1 s_27 x x ) (* 1 s_28 y ) (* 1 s_29 y y ) ) 0) )))
(assert (forall ((oldx Real) (oldy Real) (x Real) (y Real) ) (=> (and (>= (* (- 1) x ) 0) (>= (+ (* 1023 1) (* (- 1) oldx ) ) 0) (>= (+ (* 2094082 1) (* (- 1) oldy ) (* 1 x ) (* (- 2045) y ) ) 0) (>= (+ (* 3069 1) (* (- 1) x ) (* (- 2) y ) ) 0) (>= (+ (* 1023 1) (* (- 1) x ) ) 0) (>= (+ (* 1024 1) (* 1 oldx ) ) 0) (>= (+ (* 2095105 1) (* 1 oldx ) (* (- 2047) y ) ) 0) (>= (+ (* 1024 1) (* 1 y ) ) 0) (>= (+ (* 1047553 1) (* 1 x ) (* (- 1023) y ) ) 0) (>= (+ (* 1024 1) (* 1 x ) ) 0) (>= (+ (* 2098174 1) (* 1 oldy ) (* (- 1) x ) (* (- 2049) y ) ) 0) (>= (+ (* 1049599 1) (* 1 oldy ) (* (- 1025) y ) ) 0) (>= (+ (* 1024 1) (* 1 oldy ) ) 0) (>= (+ (* 1 oldx oldy s_2 ) (* 1 oldx s_1 ) (* 1 oldx s_3 x ) (* 1 oldx s_4 y ) (* 1 oldx oldx s_5 ) (* 1 oldy s_6 ) (* 1 oldy s_7 x ) (* 1 oldy s_8 y ) (* 1 oldy oldy s_9 ) (* 1 s_0 ) (* 1 s_10 x ) (* 1 s_11 x y ) (* 1 s_12 x x ) (* 1 s_13 y ) (* 1 s_14 y y ) ) 0) ) (>= (+ (* 1 c_15 ) (* 1 c_16 oldx ) (* 1 c_17 oldx oldy ) (* 1 c_18 oldx x ) (* 1 c_19 oldx y ) (* 1 c_20 oldx oldx ) (* 1 c_21 oldy ) (* 1 c_22 oldy x ) (* 1 c_23 oldy y ) (* 1 c_24 oldy oldy ) (* 1 c_25 x ) (* 1 c_26 x y ) (* 1 c_27 x x ) (* 1 c_28 y ) (* 1 c_29 y y ) ) 0) )))
(assert (forall ((oldx Real) (oldy Real) (x Real) (y Real) ) (=> (and (>= (* (- 1) y ) 0) (>= (+ (* 1023 1) (* (- 1) oldx ) ) 0) (>= (+ (* 2094082 1) (* (- 1) oldy ) (* 1 x ) (* (- 2045) y ) ) 0) (>= (+ (* 3069 1) (* (- 1) x ) (* (- 2) y ) ) 0) (>= (+ (* 1023 1) (* (- 1) x ) ) 0) (>= (+ (* 1024 1) (* 1 oldx ) ) 0) (>= (+ (* 2095105 1) (* 1 oldx ) (* (- 2047) y ) ) 0) (>= (+ (* 1024 1) (* 1 y ) ) 0) (>= (+ (* 1047553 1) (* 1 x ) (* (- 1023) y ) ) 0) (>= (+ (* 1024 1) (* 1 x ) ) 0) (>= (+ (* 2098174 1) (* 1 oldy ) (* (- 1) x ) (* (- 2049) y ) ) 0) (>= (+ (* 1049599 1) (* 1 oldy ) (* (- 1025) y ) ) 0) (>= (+ (* 1024 1) (* 1 oldy ) ) 0) (>= (+ (* 1 oldx oldy s_2 ) (* 1 oldx s_1 ) (* 1 oldx s_3 x ) (* 1 oldx s_4 y ) (* 1 oldx oldx s_5 ) (* 1 oldy s_6 ) (* 1 oldy s_7 x ) (* 1 oldy s_8 y ) (* 1 oldy oldy s_9 ) (* 1 s_0 ) (* 1 s_10 x ) (* 1 s_11 x y ) (* 1 s_12 x x ) (* 1 s_13 y ) (* 1 s_14 y y ) ) 0) ) (>= (+ (* 1 oldx oldy s_17 ) (* 1 oldx s_16 ) (* 1 oldx s_18 x ) (* 1 oldx s_19 y ) (* 1 oldx oldx s_20 ) (* 1 oldy s_21 ) (* 1 oldy s_22 x ) (* 1 oldy s_23 y ) (* 1 oldy oldy s_24 ) (* 1 s_15 ) (* 1 s_25 x ) (* 1 s_26 x y ) (* 1 s_27 x x ) (* 1 s_28 y ) (* 1 s_29 y y ) ) 0) )))
(assert (forall ((oldx Real) (oldy Real) (x Real) (y Real) ) (=> (and (>= (* (- 1) y ) 0) (>= (+ (* 1023 1) (* (- 1) oldx ) ) 0) (>= (+ (* 2094082 1) (* (- 1) oldy ) (* 1 x ) (* (- 2045) y ) ) 0) (>= (+ (* 3069 1) (* (- 1) x ) (* (- 2) y ) ) 0) (>= (+ (* 1023 1) (* (- 1) x ) ) 0) (>= (+ (* 1024 1) (* 1 oldx ) ) 0) (>= (+ (* 2095105 1) (* 1 oldx ) (* (- 2047) y ) ) 0) (>= (+ (* 1024 1) (* 1 y ) ) 0) (>= (+ (* 1047553 1) (* 1 x ) (* (- 1023) y ) ) 0) (>= (+ (* 1024 1) (* 1 x ) ) 0) (>= (+ (* 2098174 1) (* 1 oldy ) (* (- 1) x ) (* (- 2049) y ) ) 0) (>= (+ (* 1049599 1) (* 1 oldy ) (* (- 1025) y ) ) 0) (>= (+ (* 1024 1) (* 1 oldy ) ) 0) (>= (+ (* 1 oldx oldy s_2 ) (* 1 oldx s_1 ) (* 1 oldx s_3 x ) (* 1 oldx s_4 y ) (* 1 oldx oldx s_5 ) (* 1 oldy s_6 ) (* 1 oldy s_7 x ) (* 1 oldy s_8 y ) (* 1 oldy oldy s_9 ) (* 1 s_0 ) (* 1 s_10 x ) (* 1 s_11 x y ) (* 1 s_12 x x ) (* 1 s_13 y ) (* 1 s_14 y y ) ) 0) ) (>= (+ (* 1 c_15 ) (* 1 c_16 oldx ) (* 1 c_17 oldx oldy ) (* 1 c_18 oldx x ) (* 1 c_19 oldx y ) (* 1 c_20 oldx oldx ) (* 1 c_21 oldy ) (* 1 c_22 oldy x ) (* 1 c_23 oldy y ) (* 1 c_24 oldy oldy ) (* 1 c_25 x ) (* 1 c_26 x y ) (* 1 c_27 x x ) (* 1 c_28 y ) (* 1 c_29 y y ) ) 0) )))

(check-sat)
(get-model)
